Using license file /home/benedond/gurobi.lic
Using gurobi.env file
Set parameter Threads to value 1
Academic license - for non-commercial use only
Changed value of parameter TimeLimit to 300.0
   Prev: inf  Min: 0.0  Max: inf  Default: inf
Gurobi Optimizer version 9.0.1 build v9.0.1rc0 (linux64)
Optimize a model with 3613 rows, 3412 columns and 16604 nonzeros
Model fingerprint: 0x09cf40d3
Variable types: 80 continuous, 3332 integer (3332 binary)
Coefficient statistics:
  Matrix range     [2e-01, 5e+02]
  Objective range  [6e-03, 2e-01]
  Bounds range     [1e+00, 1e+00]
  RHS range        [1e+00, 2e+03]
Presolve removed 115 rows and 97 columns
Presolve time: 0.07s
Presolved: 3498 rows, 3315 columns, 16186 nonzeros
Variable types: 79 continuous, 3236 integer (3236 binary)

Root relaxation: objective 2.051238e+00, 3364 iterations, 0.16 seconds

    Nodes    |    Current Node    |     Objective Bounds      |     Work
 Expl Unexpl |  Obj  Depth IntInf | Incumbent    BestBd   Gap | It/Node Time

     0     0    2.05124    0  230          -    2.05124      -     -    0s
     0     0    2.18379    0  205          -    2.18379      -     -    0s
     0     0    2.19883    0  185          -    2.19883      -     -    0s
     0     0    2.34873    0  221          -    2.34873      -     -    0s
     0     0    2.35465    0  245          -    2.35465      -     -    0s
     0     0    2.42238    0  212          -    2.42238      -     -    1s
H    0     0                       4.5945492    2.42238  47.3%     -    1s
H    0     0                       3.9258809    2.42238  38.3%     -    1s
H    0     0                       3.5226632    2.42238  31.2%     -    2s
     0     0    2.44327    0  224    3.52266    2.44327  30.6%     -    2s
     0     0    2.44787    0  215    3.52266    2.44787  30.5%     -    2s
     0     0    2.44811    0  240    3.52266    2.44811  30.5%     -    2s
     0     0    2.44811    0  239    3.52266    2.44811  30.5%     -    2s
     0     0    2.47354    0  281    3.52266    2.47354  29.8%     -    2s
     0     0    2.49008    0  265    3.52266    2.49008  29.3%     -    2s
     0     0    2.49238    0  297    3.52266    2.49238  29.2%     -    3s
     0     0    2.49329    0  275    3.52266    2.49329  29.2%     -    3s
     0     0    2.49346    0  263    3.52266    2.49346  29.2%     -    3s
     0     0    2.50671    0  313    3.52266    2.50671  28.8%     -    3s
     0     0    2.50875    0  291    3.52266    2.50875  28.8%     -    3s
     0     0    2.50900    0  275    3.52266    2.50900  28.8%     -    3s
     0     0    2.51455    0  287    3.52266    2.51455  28.6%     -    3s
     0     0    2.51806    0  283    3.52266    2.51806  28.5%     -    3s
     0     0    2.51906    0  264    3.52266    2.51906  28.5%     -    3s
     0     0    2.51955    0  250    3.52266    2.51955  28.5%     -    3s
     0     0    2.51984    0  277    3.52266    2.51984  28.5%     -    3s
     0     0    2.52445    0  248    3.52266    2.52445  28.3%     -    3s
     0     0    2.52619    0  254    3.52266    2.52619  28.3%     -    3s
     0     0    2.52680    0  249    3.52266    2.52680  28.3%     -    3s
     0     0    2.52728    0  262    3.52266    2.52728  28.3%     -    3s
     0     0    2.52734    0  250    3.52266    2.52734  28.3%     -    3s
     0     0    2.53350    0  308    3.52266    2.53350  28.1%     -    4s
     0     0    2.53451    0  326    3.52266    2.53451  28.1%     -    4s
     0     0    2.53481    0  305    3.52266    2.53481  28.0%     -    4s
     0     0    2.53857    0  338    3.52266    2.53857  27.9%     -    4s
     0     0    2.53990    0  313    3.52266    2.53990  27.9%     -    4s
     0     0    2.54008    0  296    3.52266    2.54008  27.9%     -    4s
     0     0    2.54435    0  291    3.52266    2.54435  27.8%     -    4s
     0     0    2.54564    0  304    3.52266    2.54564  27.7%     -    4s
     0     0    2.54612    0  355    3.52266    2.54612  27.7%     -    4s
     0     0    2.54630    0  334    3.52266    2.54630  27.7%     -    4s
     0     0    2.54949    0  295    3.52266    2.54949  27.6%     -    4s
     0     0    2.55167    0  325    3.52266    2.55167  27.6%     -    4s
     0     0    2.55203    0  306    3.52266    2.55203  27.6%     -    4s
     0     0    2.55708    0  362    3.52266    2.55708  27.4%     -    5s
     0     0    2.55957    0  361    3.52266    2.55957  27.3%     -    5s
     0     0    2.55997    0  336    3.52266    2.55997  27.3%     -    5s
     0     0    2.56368    0  308    3.52266    2.56368  27.2%     -    5s
     0     0    2.56523    0  299    3.52266    2.56523  27.2%     -    5s
     0     0    2.56611    0  315    3.52266    2.56611  27.2%     -    5s
     0     0    2.56634    0  314    3.52266    2.56634  27.1%     -    5s
     0     0    2.57037    0  319    3.52266    2.57037  27.0%     -    5s
     0     0    2.57078    0  297    3.52266    2.57078  27.0%     -    5s
     0     0    2.57331    0  314    3.52266    2.57331  26.9%     -    6s
     0     0    2.57331    0  314    3.52266    2.57331  26.9%     -    7s
     0     2    2.57335    0  314    3.52266    2.57335  26.9%     -    7s
    15    17    2.61727   10  215    3.52266    2.58731  26.6%   493   10s
H   27    27                       3.4917254    2.58731  25.9%   521   14s
    33    35    2.69236   21  168    3.49173    2.58731  25.9%   584   15s
   107   109    3.29035   69   79    3.49173    2.58731  25.9%   528   20s
H  161   150                       3.4301969    2.58731  24.6%   372   20s
H  300   240                       3.3746062    2.58737  23.3%   295   25s
   369   302    2.96084   58  138    3.37461    2.58802  23.3%   302   30s
H  445   316                       3.3192176    2.59353  21.9%   281   33s
   468   341    2.79235   20  182    3.31922    2.59353  21.9%   286   35s
   513   384    2.77650   23  184    3.31922    2.59353  21.9%   281   40s
   549   408    2.72364   21  367    3.31922    2.60405  21.5%   263   45s
   566   420    2.82704   48  376    3.31922    2.61498  21.2%   255   50s
   605   446    3.01032   63  411    3.31922    2.62918  20.8%   239   55s
   634   465    2.90534   25  413    3.31922    2.63635  20.6%   228   60s
   665   486    2.84956   49  396    3.31922    2.64262  20.4%   217   65s
   670   489    2.79036   24  386    3.31922    2.64325  20.4%   215   70s
   673   493    2.70909   13  306    3.31922    2.64552  20.3%   294   78s
   674   494    2.64619   14  292    3.31922    2.64619  20.3%   294   81s
   679   497    2.71196   16  329    3.31922    2.64795  20.2%   299   85s
   692   506    2.67126   23  263    3.31922    2.65672  20.0%   309   90s
   707   516    2.81206   30  167    3.31922    2.65672  20.0%   325   95s
   731   532    2.79851   42  186    3.31922    2.65672  20.0%   338  100s
H  752   516                       3.2677824    2.65672  18.7%   342  102s
   779   534     cutoff   66         3.26778    2.65672  18.7%   344  105s
H  785   511                       3.2069067    2.65672  17.2%   344  106s
   836   522    2.65926   18  250    3.20691    2.65675  17.2%   352  112s
   846   528    2.69885   23  276    3.20691    2.65675  17.2%   357  115s
   877   549    2.74046   39  213    3.20691    2.65675  17.2%   369  120s
   918   574    2.92401   59   82    3.20691    2.65675  17.2%   378  125s
H  993   579                       3.2069067    2.65675  17.2%   366  128s
H  999   555                       3.2069066    2.65675  17.2%   364  128s
  1089   563    3.19024  147   42    3.20691    2.65675  17.2%   341  130s
  1112   569     cutoff   26         3.20691    2.65734  17.1%   354  135s
  1142   587     cutoff   41         3.20691    2.65734  17.1%   367  140s
  1167   601    2.88533   54  173    3.20691    2.65734  17.1%   375  145s
  1204   626    3.04378   72  118    3.20691    2.65734  17.1%   384  150s
  1258   634    2.67905   21  326    3.20691    2.65744  17.1%   387  155s
  1280   649    2.77658   36  190    3.20691    2.65744  17.1%   391  160s
  1353   692    2.98994   95  129    3.20691    2.65744  17.1%   388  165s
  1459   718    2.78855   30  211    3.20691    2.65781  17.1%   377  170s
  1550   777    2.93709  100   94    3.20691    2.65781  17.1%   369  175s
  1638   797    2.72221   26  262    3.20691    2.65782  17.1%   363  180s
  1688   830    2.91903   63  164    3.20691    2.65782  17.1%   364  185s
  1786   895    2.95394  146  173    3.20691    2.65782  17.1%   354  190s
  1868   942    3.10246  192  144    3.20691    2.65782  17.1%   353  195s
H 1948   967                       3.2012124    2.66775  16.7%   348  198s
  1975   996    2.98898   68  181    3.20121    2.66775  16.7%   344  205s
H 2029  1006                       3.1803057    2.66775  16.1%   337  207s
  2049  1018    2.75624   34  274    3.18031    2.66809  16.1%   338  210s
  2137  1104    3.13153  121  145    3.18031    2.66809  16.1%   332  215s
  2238  1134    3.11492   24  243    3.18031    2.68448  15.6%   328  220s
  2335  1220    2.86128   31  230    3.18031    2.69667  15.2%   323  225s
  2386  1271    2.94206   71  231    3.18031    2.69667  15.2%   325  230s
  2538  1392    2.73661   20  221    3.18031    2.69668  15.2%   318  235s
  2672  1513    3.04765   26  204    3.18031    2.69668  15.2%   311  240s
  2743  1562    3.16854   58  202    3.18031    2.69852  15.1%   311  245s
  2837  1631    2.73158   28  232    3.18031    2.69965  15.1%   307  250s
  2924  1708    3.13797   23  231    3.18031    2.70022  15.1%   306  255s
  2970  1735    2.72363   23  232    3.18031    2.70430  15.0%   306  260s
  2979  1744    2.73549   28  291    3.18031    2.70430  15.0%   308  269s
  2982  1747    2.86223   29  295    3.18031    2.70430  15.0%   309  270s
  3004  1769    2.91077   40  210    3.18031    2.70430  15.0%   314  275s
  3032  1795    2.93729   54  168    3.18031    2.70430  15.0%   319  280s
  3070  1831    2.99380   73  152    3.18031    2.70430  15.0%   322  285s
  3113  1872    2.89823   95  160    3.18031    2.70430  15.0%   326  290s
  3182  1926    3.14151  129  111    3.18031    2.70430  15.0%   329  295s

Cutting planes:
  Cover: 19
  Implied bound: 12
  Projected implied bound: 1
  Clique: 5
  MIR: 311
  StrongCG: 2
  Flow cover: 740
  GUB cover: 1
  RLT: 21
  Relax-and-lift: 512

Explored 3242 nodes (1092882 simplex iterations) in 300.00 seconds
Thread count was 1 (of 4 available processors)

Solution count 10: 3.18031 3.20121 3.20691 ... 3.92588

Time limit reached
Best objective 3.180305703919e+00, best bound 2.706673392710e+00, gap 14.8927%
